NAME 
ROWS
 N  OBJ
 L  R0      
 E  R1      
 E  R2      
 E  R3      
 E  R4      
 E  R5      
 E  R6      
 E  R7      
 E  R8      
 E  R9      
 E  R10     
 E  R11     
 E  R12     
 E  R13     
 E  R14     
 E  R15     
 E  R16     
 E  R17     
 E  R18     
 E  R19     
 E  R20     
COLUMNS
    MARKER    'MARKER'                 'INTORG'
    I0(9)     OBJ       -16
    I0(9)     R0        147
    I0(9)     R2        16
    I0(9)     R3        14
    I0(9)     R4        14
    I0(9)     R5        5
    I0(9)     R6        16
    I0(9)     R7        12
    I0(9)     R8        13
    I0(9)     R20       1
    I1(7)     OBJ       157
    I1(7)     R0        23
    I1(7)     R2        7
    I1(7)     R3        10
    I1(7)     R6        12
    I1(7)     R7        1
    I1(7)     R8        5
    I1(7)     R20       1
    I2(9)     OBJ       123
    I2(9)     R0        -196
    I2(9)     R1        17
    I2(9)     R2        -1
    I2(9)     R3        19
    I2(9)     R4        15
    I2(9)     R5        -1
    I2(9)     R6        7
    I2(9)     R7        7
    I2(9)     R20       1
    I3(10)    OBJ       108
    I3(10)    R0        -49
    I3(10)    R1        8
    I3(10)    R2        19
    I3(10)    R3        2
    I3(10)    R4        6
    I3(10)    R5        1
    I3(10)    R6        -1
    I3(10)    R7        8
    I3(10)    R8        7
    I3(10)    R20       1
    I4(6)     OBJ       46
    I4(6)     R0        -71
    I4(6)     R2        1
    I4(6)     R3        6
    I4(6)     R5        5
    I4(6)     R6        18
    I4(6)     R20       1
    I5(8)     OBJ       115
    I5(8)     R0        191
    I5(8)     R2        4
    I5(8)     R4        6
    I5(8)     R5        13
    I5(8)     R6        14
    I5(8)     R7        18
    I5(8)     R8        4
    I5(8)     R20       1
    I6(8)     OBJ       90
    I6(8)     R0        40
    I6(8)     R1        8
    I6(8)     R2        7
    I6(8)     R4        11
    I6(8)     R6        11
    I6(8)     R7        4
    I6(8)     R8        1
    I6(8)     R20       1
    I7(9)     OBJ       -140
    I7(9)     R0        -168
    I7(9)     R1        -1
    I7(9)     R2        11
    I7(9)     R3        11
    I7(9)     R4        6
    I7(9)     R5        4
    I7(9)     R6        15
    I7(9)     R7        14
    I7(9)     R20       1
    MARKER    'MARKER'                 'INTEND'
    C8(16)    OBJ       5
    C8(16)    R0        5
    C8(16)    R1        12
    C8(16)    R2        13
    C8(16)    R3        15
    C8(16)    R4        10
    C8(16)    R6        11
    C8(16)    R7        -1
    C8(16)    R10       6
    C8(16)    R11       9
    C8(16)    R13       2
    C8(16)    R14       8
    C8(16)    R15       6
    C8(16)    R16       7
    C8(16)    R17       5
    C8(16)    R18       5
    C8(16)    R19       1
    C9(17)    OBJ       1
    C9(17)    R1        6
    C9(17)    R2        7
    C9(17)    R3        19
    C9(17)    R4        10
    C9(17)    R5        9
    C9(17)    R6        19
    C9(17)    R7        11
    C9(17)    R8        19
    C9(17)    R9        11
    C9(17)    R11       17
    C9(17)    R12       1
    C9(17)    R14       12
    C9(17)    R15       10
    C9(17)    R16       9
    C9(17)    R17       2
    C9(17)    R18       12
    C9(17)    R19       11
    C10(15)   OBJ       6
    C10(15)   R0        2
    C10(15)   R1        19
    C10(15)   R2        5
    C10(15)   R3        18
    C10(15)   R4        15
    C10(15)   R5        8
    C10(15)   R6        4
    C10(15)   R8        6
    C10(15)   R11       13
    C10(15)   R12       14
    C10(15)   R13       18
    C10(15)   R14       -1
    C10(15)   R15       12
    C10(15)   R16       14
    C10(15)   R17       4
    C11(15)   OBJ       -1
    C11(15)   R0        4
    C11(15)   R2        10
    C11(15)   R3        5
    C11(15)   R4        9
    C11(15)   R5        4
    C11(15)   R6        12
    C11(15)   R8        16
    C11(15)   R10       17
    C11(15)   R11       16
    C11(15)   R12       14
    C11(15)   R13       10
    C11(15)   R14       17
    C11(15)   R15       6
    C11(15)   R17       12
    C11(15)   R18       9
    C12(18)   R0        8
    C12(18)   R1        16
    C12(18)   R2        5
    C12(18)   R4        9
    C12(18)   R5        5
    C12(18)   R6        10
    C12(18)   R7        17
    C12(18)   R8        18
    C12(18)   R9        7
    C12(18)   R10       13
    C12(18)   R11       -1
    C12(18)   R12       14
    C12(18)   R13       -1
    C12(18)   R14       3
    C12(18)   R16       1
    C12(18)   R17       1
    C12(18)   R18       19
    C12(18)   R19       -1
    C13(14)   OBJ       -4
    C13(14)   R0        7
    C13(14)   R1        12
    C13(14)   R2        10
    C13(14)   R3        6
    C13(14)   R5        2
    C13(14)   R6        9
    C13(14)   R7        6
    C13(14)   R8        4
    C13(14)   R9        7
    C13(14)   R11       3
    C13(14)   R15       12
    C13(14)   R16       17
    C13(14)   R17       2
    C13(14)   R18       4
    C14(17)   OBJ       -1
    C14(17)   R0        2
    C14(17)   R1        6
    C14(17)   R2        -1
    C14(17)   R4        3
    C14(17)   R5        -1
    C14(17)   R6        17
    C14(17)   R7        4
    C14(17)   R8        2
    C14(17)   R9        3
    C14(17)   R10       11
    C14(17)   R13       18
    C14(17)   R14       5
    C14(17)   R15       9
    C14(17)   R16       -1
    C14(17)   R17       17
    C14(17)   R18       -1
    C14(17)   R19       15
    C15(14)   OBJ       -4
    C15(14)   R1        19
    C15(14)   R4        14
    C15(14)   R5        4
    C15(14)   R6        8
    C15(14)   R8        3
    C15(14)   R9        2
    C15(14)   R11       6
    C15(14)   R12       17
    C15(14)   R13       10
    C15(14)   R14       15
    C15(14)   R15       3
    C15(14)   R16       16
    C15(14)   R17       4
    C15(14)   R18       11
    C16(19)   OBJ       -5
    C16(19)   R0        -2
    C16(19)   R1        10
    C16(19)   R2        4
    C16(19)   R3        -1
    C16(19)   R4        13
    C16(19)   R5        12
    C16(19)   R6        15
    C16(19)   R7        2
    C16(19)   R8        6
    C16(19)   R9        15
    C16(19)   R10       17
    C16(19)   R11       16
    C16(19)   R12       17
    C16(19)   R13       -1
    C16(19)   R14       4
    C16(19)   R15       8
    C16(19)   R16       14
    C16(19)   R18       4
    C16(19)   R19       4
    C17(14)   OBJ       -9
    C17(14)   R0        3
    C17(14)   R2        9
    C17(14)   R3        8
    C17(14)   R5        8
    C17(14)   R6        5
    C17(14)   R9        10
    C17(14)   R10       9
    C17(14)   R11       11
    C17(14)   R12       7
    C17(14)   R13       2
    C17(14)   R15       6
    C17(14)   R16       4
    C17(14)   R17       16
    C17(14)   R18       12
    C18(17)   OBJ       9
    C18(17)   R0        4
    C18(17)   R1        14
    C18(17)   R2        -1
    C18(17)   R3        3
    C18(17)   R4        13
    C18(17)   R5        5
    C18(17)   R7        17
    C18(17)   R8        10
    C18(17)   R10       7
    C18(17)   R11       12
    C18(17)   R12       10
    C18(17)   R13       16
    C18(17)   R14       2
    C18(17)   R15       12
    C18(17)   R16       10
    C18(17)   R17       6
    C18(17)   R18       -1
    C19(16)   OBJ       -1
    C19(16)   R0        6
    C19(16)   R2        8
    C19(16)   R3        9
    C19(16)   R5        13
    C19(16)   R6        3
    C19(16)   R7        4
    C19(16)   R8        2
    C19(16)   R9        3
    C19(16)   R10       6
    C19(16)   R12       1
    C19(16)   R13       11
    C19(16)   R14       4
    C19(16)   R16       7
    C19(16)   R17       1
    C19(16)   R18       12
    C19(16)   R19       14
    C20(1)    R1        1
    C21(1)    R2        1
    C22(1)    R3        1
    C23(1)    R4        1
    C24(1)    R5        1
    C25(1)    R6        1
    C26(1)    R7        1
    C27(1)    R8        1
    C28(1)    R9        1
    C29(1)    R10       1
    C30(1)    R11       1
    C31(1)    R12       1
    C32(1)    R13       1
    C33(1)    R14       1
    C34(1)    R15       1
    C35(1)    R16       1
    C36(1)    R17       1
    C37(1)    R18       1
    C38(1)    R19       1
    C39(1)    R20       1
RHS
    RHS1      R0        -3.2316417910447353e+02
    RHS1      R1        73
    RHS1      R2        82
    RHS1      R3        97
    RHS1      R4        63
    RHS1      R5        96
    RHS1      R6        50
    RHS1      R7        52
    RHS1      R8        96
    RHS1      R9        61
    RHS1      R10       74
    RHS1      R11       54
    RHS1      R12       66
    RHS1      R13       78
    RHS1      R14       73
    RHS1      R15       99
    RHS1      R16       69
    RHS1      R17       50
    RHS1      R18       96
    RHS1      R19       68
    RHS1      R20       2
BOUNDS
 UP BND1      I0(9)     2
 UP BND1      I1(7)     2
 UP BND1      I2(9)     2
 UP BND1      I3(10)    2
 UP BND1      I4(6)     2
 UP BND1      I5(8)     2
 UP BND1      I6(8)     2
 UP BND1      I7(9)     2
ENDATA
